FILENAME:   /home/mcs001/s132664/testsets/IP/miplib2017/tpl-tub-ss16.mps.gz
SETTINGS:   settings_final_nosym_norestarts
TIMELIMIT:  7200
OUTPUTNAME: final_miplib_symretope_if_extended_generating_set_cpx_v802__settings_final_nosym_norestarts__3__
BINNAME:    bin/sbcs.linux.x86_64.gnu.opt.cpx
BASENAME:   tpl-tub-ss16.mps.gz
SEED:       3
@01 /home/mcs001/s132664/testsets/IP/miplib2017/tpl-tub-ss16.mps.gz ===========
@02 tpl-tub-ss16.mps.gz
@03 1686663623
SCIP version 8.0.2 [precision: 8 byte] [memory: block] [mode: optimized] [LP solver: CPLEX 20.1.0.0] [GitHash: 5f0473c]
Copyright (C) 2002-2022 Konrad-Zuse-Zentrum fuer Informationstechnik Berlin (ZIB)

Symretope propagation methods - (c) Jasper van Doornmalen, Christopher Hojny.
[GitHash: 2fd0484]

reading parameter file <../settings/settings_final_nosym_norestarts.set> ...

Changed settings:
limits/time = 7200
limits/restarts = 0
misc/usesymmetry = 0
randomization/randomseedshift = 3
constraints/orbisack/sepafreq = -1
constraints/symresack/sepafreq = -1
propagating/symmetry/detectsubgroups = FALSE
propagating/symmetry/usesymretopes = FALSE
propagating/symmetry/relabelsymretopes = 0
propagating/symmetry/ofsymcomptiming = 0
constraints/symretope/sepafreq = -1
constraints/symretope/peek = FALSE


solving problem ...

original problem has 595066 variables (570303 bin, 0 int, 0 impl, 24763 cont) and 901872 constraints
presolving:
(round 1, fast)       24551 del vars, 399282 del conss, 0 add conss, 4938 chg bounds, 0 chg sides, 77 chg coeffs, 0 upgd conss, 0 impls, 229918 clqs
(round 2, fast)       24879 del vars, 400210 del conss, 0 add conss, 4938 chg bounds, 16155 chg sides, 77 chg coeffs, 0 upgd conss, 0 impls, 230192 clqs
(round 3, exhaustive) 25078 del vars, 663257 del conss, 0 add conss, 5560 chg bounds, 16155 chg sides, 77 chg coeffs, 0 upgd conss, 0 impls, 230192 clqs
(round 4, exhaustive) 25094 del vars, 663273 del conss, 0 add conss, 5560 chg bounds, 16155 chg sides, 77 chg coeffs, 235821 upgd conss, 0 impls, 230178 clqs
   (232.5s) probing: 1000/567159 (0.2%) - 1 fixings, 0 aggregations, 388880 implications, 0 bound changes
   (232.9s) probing: 1002/567159 (0.2%) - 1 fixings, 0 aggregations, 389885 implications, 0 bound changes
   (232.9s) probing aborted: 1000/1000 successive useless probings
presolving (5 rounds: 5 fast, 3 medium, 3 exhaustive):
 25172 deleted vars, 663347 deleted constraints, 34 added constraints, 5561 tightened bounds, 0 added holes, 16162 changed sides, 132 changed coefficients
 0 implications, 624680 cliques
presolved problem has 569894 variables (562222 bin, 0 int, 7672 impl, 0 cont) and 238559 constraints
   4891 constraints of type <varbound>
   1019 constraints of type <knapsack>
 229871 constraints of type <setppc>
   2775 constraints of type <linear>
      3 constraints of type <logicor>
transformed objective value is always integral (scale: 1)
Presolving Time: 230.60

 time | node  | left  |LP iter|LP it/n|mem/heur|mdpt |vars |cons |rows |cuts |sepa|confs|strbr|  dualbound   | primalbound  |  gap   | compl. 
p 394s|     1 |     0 |     0 |     - |shiftand|   0 | 569k| 238k| 238k|   0 |  0 |  98 |   0 |-2.005365e+08 | 1.591454e+07 |    Inf | unknown
i 396s|     1 |     0 |     0 |     - |  oneopt|   0 | 569k| 238k| 238k|   0 |  0 |  98 |   0 |-2.005365e+08 | 1.242594e+07 |    Inf | unknown
  574s|     1 |     0 |104511 |     - |  4534M |   0 | 569k| 238k| 238k|   0 |  0 |  98 |   0 | 1.503438e+05 | 1.242594e+07 |8165.02%| unknown
  870s|     1 |     0 |131700 |     - |  4647M |   0 | 569k| 238k| 238k| 273 |  1 | 104 |   0 | 1.503587e+05 | 1.242594e+07 |8164.20%| unknown
 1131s|     1 |     0 |151605 |     - |  4686M |   0 | 569k| 238k| 239k| 495 |  2 | 105 |   0 | 1.503682e+05 | 1.242594e+07 |8163.68%| unknown
 1442s|     1 |     0 |172219 |     - |  4725M |   0 | 569k| 238k| 239k| 714 |  3 | 106 |   0 | 1.503773e+05 | 1.242594e+07 |8163.18%| unknown
 2157s|     1 |     0 |210623 |     - |  4770M |   0 | 569k| 238k| 239k| 899 |  4 | 107 |   0 | 1.503900e+05 | 1.242594e+07 |8162.48%| unknown
 2611s|     1 |     0 |230653 |     - |  4808M |   0 | 569k| 238k| 239k|1052 |  5 | 108 |   0 | 1.503956e+05 | 1.242594e+07 |8162.17%| unknown
 3088s|     1 |     0 |252417 |     - |  4855M |   0 | 569k| 238k| 239k|1200 |  6 | 109 |   0 | 1.503981e+05 | 1.242594e+07 |8162.04%| unknown
 3565s|     1 |     0 |278133 |     - |  4896M |   0 | 569k| 238k| 239k|1334 |  7 | 110 |   0 | 1.503999e+05 | 1.242594e+07 |8161.93%| unknown
 4062s|     1 |     0 |302578 |     - |  4939M |   0 | 569k| 238k| 240k|1486 |  8 | 111 |   0 | 1.504045e+05 | 1.242594e+07 |8161.68%| unknown
 4601s|     1 |     0 |327180 |     - |  4975M |   0 | 569k| 238k| 240k|1628 |  9 | 117 |   0 | 1.504124e+05 | 1.242594e+07 |8161.25%| unknown
 5146s|     1 |     0 |354329 |     - |  5018M |   0 | 569k| 238k| 240k|1765 | 10 | 118 |   0 | 1.504146e+05 | 1.242594e+07 |8161.13%| unknown
 6094s|     1 |     0 |419303 |     - |  5051M |   0 | 569k| 238k| 240k|1885 | 11 | 119 |   0 | 1.504195e+05 | 1.242594e+07 |8160.86%| unknown
 6489s|     1 |     0 |436674 |     - |  5084M |   0 | 569k| 238k| 240k|2015 | 12 | 119 |   0 | 1.504208e+05 | 1.242594e+07 |8160.79%| unknown
 time | node  | left  |LP iter|LP it/n|mem/heur|mdpt |vars |cons |rows |cuts |sepa|confs|strbr|  dualbound   | primalbound  |  gap   | compl. 
 7200s|     1 |     2 |477917 |     - |  5101M |   0 | 569k| 238k| 240k|2015 | 12 | 124 |   0 | 1.504208e+05 | 1.242594e+07 |8160.79%| unknown

SCIP Status        : solving was interrupted [time limit reached]
Solving Time (sec) : 7200.48
Solving Nodes      : 1
Primal Bound       : +1.24259450000000e+07 (2 solutions)
Dual Bound         : +1.50420845591499e+05
Gap                : 8160.79 %
SCIP Status        : solving was interrupted [time limit reached]
Total Time         :    7210.31
  solving          :    7200.48
  presolving       :     230.60 (included in solving)
  reading          :       9.83
  copying          :       0.00 (0 times copied the problem)
Original Problem   :
  Problem name     : tpl-tub-ss16
  Variables        : 595066 (570303 binary, 0 integer, 0 implicit integer, 24763 continuous)
  Constraints      : 901872 initial, 901872 maximal
  Objective        : minimize, 411237 non-zeros (abs.min = 1, abs.max = 10000)
Presolved Problem  :
  Problem name     : t_tpl-tub-ss16
  Variables        : 569894 (562222 binary, 0 integer, 7672 implicit integer, 0 continuous)
  Constraints      : 238559 initial, 238678 maximal
  Objective        : minimize, 399205 non-zeros (abs.min = 1, abs.max = 23443)
  Nonzeros         : 2053542 constraint, 2071117 clique table
Presolvers         :   ExecTime  SetupTime  Calls  FixedVars   AggrVars   ChgTypes  ChgBounds   AddHoles    DelCons    AddCons   ChgSides   ChgCoefs
  boundshift       :       0.00       0.00      0          0          0          0          0          0          0          0          0          0
  convertinttobin  :       0.00       0.00      0          0          0          0          0          0          0          0          0          0
  domcol           :       1.50       0.00      1          2          0          0          0          0          0          0          0          0
  dualagg          :       0.00       0.00      0          0          0          0          0          0          0          0          0          0
  dualcomp         :       0.00       0.00      0          0          0          0          0          0          0          0          0          0
  dualinfer        :       0.00       0.00      0          0          0          0          0          0          0          0          0          0
  dualsparsify     :       1.56       0.00      1          0          0          0          0          0          0          0          0          0
  gateextraction   :       0.55       0.00      1          0          0          0          0          0          0          0          0          0
  implics          :       0.04       0.00      3          0          0          0          0          0          0          0          0          0
  inttobinary      :       0.00       0.00      0          0          0          0          0          0          0          0          0          0
  qpkktref         :       0.00       0.00      0          0          0          0          0          0          0          0          0          0
  redvub           :       0.00       0.00      0          0          0          0          0          0          0          0          0          0
  sparsify         :       3.59       0.00      1          0          0          0          0          0          0          0          0          0
  stuffing         :       0.00       0.00      0          0          0          0          0          0          0          0          0          0
  trivial          :       0.17       0.00      5          0          0          0          0          0          0          0          0          0
  tworowbnd        :       0.00       0.00      0          0          0          0          0          0          0          0          0          0
  dualfix          :       0.15       0.00      5        529          0          0          0          0          0          0          0          0
  genvbounds       :       0.00       0.00      0          0          0          0          0          0          0          0          0          0
  probing          :     205.83       0.03      1          1          0          0          0          0          0          0          0          0
  pseudoobj        :       0.00       0.00      0          0          0          0          0          0          0          0          0          0
  symmetry         :       0.00       0.00      0          0          0          0          0          0          0          0          0          0
  vbounds          :       1.08       0.00      1          0          0          0          0          0          0          0          0          0
  varbound         :       0.01       0.00      2          0          0          0          0          0          0          0          0          0
  knapsack         :       2.65       0.05      3          0          0          0          0          0          6         34          5         50
  setppc           :       1.89       0.12      3          2         32          0          0          0         27          0          2          5
  linear           :       6.20       1.72      8       4938      19629          0       5561          0     663274          0      16155         77
  logicor          :       0.02       0.00      3          0          0          0          0          0          0          0          0          0
  benders          :       0.00       0.00      0          0          0          0          0          0          0          0          0          0
  components       :       1.09       0.00      1         39          0          0          0          0         40          0          0          0
  root node        :          -          -      -          5          -          -          5          -          -          -          -          -
Constraints        :     Number  MaxNumber  #Separate #Propagate    #EnfoLP    #EnfoRelax  #EnfoPS    #Check   #ResProp    Cutoffs    DomReds       Cuts    Applied      Conss   Children
  benderslp        :          0          0          0          0          0          0          1         13          0          0          0          0          0          0          0
  integral         :          0          0          0          0          0          0          0         13          0          0          0          0          0          0          0
  varbound         :       4891       4891         12     240270          0          0          1          6          0          0          0          0          0          0          0
  knapsack         :       1019       1019         12     240270          0          0          1          6          0         13          0       2408       1229          0          0
  setppc           :     229871+    229897         12     240257          0          0          1          4       2569         42          0          2          0          0          0
  linear           :       2775       2775         12     240215          0          0          0          2          0          0          0          0          0          0          0
  logicor          :          3+        96         12        282          0          0          1          2          0          1          0          4          1          0          0
  benders          :          0          0          0          0          0          0          1          3          0          0          0          0          0          0          0
  countsols        :          0          0          0          0          0          0          1          3          0          0          0          0          0          0          0
  components       :          0          0          0          0          0          0          0          0          0          0          0          0          0          0          0
Constraint Timings :  TotalTime  SetupTime   Separate  Propagate     EnfoLP     EnfoPS     EnfoRelax   Check    ResProp    SB-Prop
  benderslp        :       0.00       0.00       0.00       0.00       0.00       0.00       0.00       0.00       0.00       0.00
  integral         :       0.34       0.00       0.00       0.00       0.00       0.00       0.00       0.34       0.00       0.00
  varbound         :       0.07       0.00       0.04       0.02       0.00       0.00       0.00       0.01       0.00       0.00
  knapsack         :      33.10       0.05       5.50      27.43       0.00       0.00       0.00       0.12       0.00       0.00
  setppc           :      24.68       0.12       0.87      23.56       0.00       0.12       0.00       0.02       0.00       0.00
  linear           :      22.24       1.72      20.34       0.18       0.00       0.00       0.00       0.00       0.00       0.00
  logicor          :       0.00       0.00       0.00       0.00       0.00       0.00       0.00       0.00       0.00       0.00
  benders          :       0.00       0.00       0.00       0.00       0.00       0.00       0.00       0.00       0.00       0.00
  countsols        :       0.00       0.00       0.00       0.00       0.00       0.00       0.00       0.00       0.00       0.00
  components       :       0.02       0.00       0.00       0.02       0.00       0.00       0.00       0.00       0.00       0.00
Propagators        : #Propagate   #ResProp    Cutoffs    DomReds
  dualfix          :          2          0          0          0
  genvbounds       :          0          0          0          0
  nlobbt           :          0          0          0          0
  obbt             :          0          0          0          0
  probing          :          0          0          0          0
  pseudoobj        :         16          0          0          0
  redcost          :         14          0          0          0
  rootredcost      :          0          0          0          0
  symmetry         :          0          0          0          0
  vbounds          :      15604          0          0          0
Propagator Timings :  TotalTime  SetupTime   Presolve  Propagate    ResProp    SB-Prop
  dualfix          :       0.20       0.00       0.15       0.06       0.00       0.00
  genvbounds       :       0.03       0.00       0.00       0.03       0.00       0.00
  nlobbt           :       0.00       0.00       0.00       0.00       0.00       0.00
  obbt             :       0.00       0.00       0.00       0.00       0.00       0.00
  probing          :     205.86       0.03     205.83       0.00       0.00       0.00
  pseudoobj        :       0.27       0.00       0.00       0.27       0.00       0.00
  redcost          :       0.68       0.00       0.00       0.68       0.00       0.00
  rootredcost      :       0.02       0.00       0.00       0.02       0.00       0.00
  symmetry         :       0.02       0.00       0.00       0.02       0.00       0.00
  vbounds          :       1.39       0.00       1.08       0.31       0.00       0.00
Conflict Analysis  :       Time      Calls    Success    DomReds  Conflicts   Literals    Reconvs ReconvLits   Dualrays   Nonzeros   LP Iters   (pool size: [10000,10000])
  propagation      :       0.01         45         45          -        164      248.7          0        0.0          -          -          -
  infeasible LP    :       0.00          0          0          -          0        0.0          0        0.0          0        0.0          0
  bound exceed. LP :       0.00          0          0          -          0        0.0          0        0.0          0        0.0          0
  strong branching :       0.00          0          0          -          0        0.0          0        0.0          -          -          0
  pseudo solution  :       0.00          0          0          -          0        0.0          0        0.0          -          -          -
  applied globally :       0.04          -          -          0        124       66.2          -          -          0          -          -
  applied locally  :          -          -          -          0          0        0.0          -          -          0          -          -
Separators         :   ExecTime  SetupTime      Calls  RootCalls    Cutoffs    DomReds  FoundCuts ViaPoolAdd  DirectAdd    Applied ViaPoolApp  DirectApp      Conss
  cut pool         :       0.24          -         23         23          -          -       2626       1529          -          -          -          -          -    (maximal pool size:       2626)
  aggregation      :      25.35       0.00         12         12          0          0          1          0          0          0          0          0          0
  > cmir           :          -          -          -          -          -          -          -          0          0          0          0          0          -
  > flowcover      :          -          -          -          -          -          -          -          0          0          0          0          0          -
  > knapsackcover  :          -          -          -          -          -          -          -          0          0          0          0          0          -
  cgmip            :       0.00       0.00          0          0          0          0          0          0          0          0          0          0          0
  clique           :    1643.15       0.00         12         12          0          0         62         91          0         30         30          0          0
  closecuts        :       0.00       0.00          0          0          0          0          0          0          0          0          0          0          0
  convexproj       :       0.00       0.00          0          0          0          0          0          0          0          0          0          0          0
  disjunctive      :       0.00       0.00          0          0          0          0          0          0          0          0          0          0          0
  eccuts           :       0.00       0.00          0          0          0          0          0          0          0          0          0          0          0
  gauge            :       0.00       0.00          0          0          0          0          0          0          0          0          0          0          0
  gomory           :      61.87       0.00         10         10          0          0       2002        875          0        217        217          0          0
  > gomorymi       :          -          -          -          -          -          -          -         59          0         14         14          0          -
  > strongcg       :          -          -          -          -          -          -          -        816          0        203        203          0          -
  impliedbounds    :       1.67       0.00         12         12          0          0          2          2          0          1          1          0          0
  interminor       :       0.00       0.00          0          0          0          0          0          0          0          0          0          0          0
  intobj           :       0.00       0.00          0          0          0          0          0          0          0          0          0          0          0
  mcf              :      22.43       0.00          1          1          0          0          0          0          0          0          0          0          0
  minor            :       0.00       0.00          0          0          0          0          0          0          0          0          0          0          0
  mixing           :       0.00       0.00         12         12          0          0          0          0          0          0          0          0          0
  oddcycle         :       0.00       0.00          0          0          0          0          0          0          0          0          0          0          0
  rapidlearning    :       0.52       0.00          0          0          0          0          0          0          0          0          0          0          0
  rlt              :       0.00       0.00         10         10          0          0          0          0          0          0          0          0          0
  zerohalf         :      20.34       0.00         12         12          0          0        559        561          0        537        537          0          0
Cutselectors       :   ExecTime  SetupTime      Calls  RootCalls   Selected     Forced   Filtered  RootSelec   RootForc   RootFilt 
  hybrid           :       0.29       0.00         12         12       2015          0       1928       2015          0       1928
Pricers            :   ExecTime  SetupTime      Calls       Vars
  problem variables:       0.00          -          0          0
Branching Rules    :   ExecTime  SetupTime   BranchLP  BranchExt   BranchPS    Cutoffs    DomReds       Cuts      Conss   Children
  allfullstrong    :       0.00       0.00          0          0          0          0          0          0          0          0
  cloud            :       0.00       0.00          0          0          0          0          0          0          0          0
  distribution     :       0.00       0.00          0          0          0          0          0          0          0          0
  fullstrong       :       0.00       0.00          0          0          0          0          0          0          0          0
  inference        :       0.17       0.00          0          0          1          0          0          0          0          2
  leastinf         :       0.00       0.00          0          0          0          0          0          0          0          0
  lookahead        :       0.00       0.00          0          0          0          0          0          0          0          0
  mostinf          :       0.00       0.00          0          0          0          0          0          0          0          0
  multaggr         :       0.00       0.00          0          0          0          0          0          0          0          0
  nodereopt        :       0.00       0.00          0          0          0          0          0          0          0          0
  pscost           :       0.00       0.00          0          0          0          0          0          0          0          0
  random           :       0.00       0.00          0          0          0          0          0          0          0          0
  relpscost        :       0.00       0.00          0          0          0          0          0          0          0          0
  vanillafullstrong:       0.00       0.00          0          0          0          0          0          0          0          0
Primal Heuristics  :   ExecTime  SetupTime      Calls      Found       Best
  LP solutions     :       0.00          -          -          0          0
  relax solutions  :       0.00          -          -          0          0
  pseudo solutions :       0.00          -          -          0          0
  strong branching :       0.00          -          -          0          0
  actconsdiving    :       0.00       0.00          0          0          0
  adaptivediving   :       0.00       0.00          0          0          0
  alns             :       0.00       0.00          0          0          0
  bound            :       0.00       0.00          0          0          0
  clique           :       3.77       0.00          1          0          0
  coefdiving       :       0.00       0.00          0          0          0
  completesol      :       0.00       0.00          0          0          0
  conflictdiving   :       0.00       0.00          0          0          0
  crossover        :       0.00       0.00          0          0          0
  dins             :       0.00       0.00          0          0          0
  distributiondivin:       0.00       0.00          0          0          0
  dps              :       0.00       0.00          0          0          0
  dualval          :       0.00       0.00          0          0          0
  farkasdiving     :     705.52       0.00          1          0          0
  feaspump         :       0.00       0.00          0          0          0
  fixandinfer      :       0.00       0.00          0          0          0
  fracdiving       :       0.00       0.00          0          0          0
  gins             :       0.00       0.00          0          0          0
  guideddiving     :       0.00       0.00          0          0          0
  indicator        :       0.00       0.00          0          0          0
  intdiving        :       0.00       0.00          0          0          0
  intshifting      :       0.00       0.00          0          0          0
  linesearchdiving :       0.00       0.00          0          0          0
  localbranching   :       0.00       0.00          0          0          0
  locks            :     143.84       0.00          1          0          0
  lpface           :       0.00       0.00          0          0          0
  mpec             :       0.00       0.00          0          0          0
  multistart       :       0.00       0.00          0          0          0
  mutation         :       0.00       0.00          0          0          0
  nlpdiving        :       0.00       0.00          0          0          0
  objpscostdiving  :       0.00       0.00          0          0          0
  octane           :       0.00       0.00          0          0          0
  ofins            :       0.00       0.00          0          0          0
  oneopt           :       0.83       0.00          1          1          1
  padm             :       0.00       0.00          0          0          0
  proximity        :       0.00       0.00          0          0          0
  pscostdiving     :       0.00       0.00          0          0          0
  randrounding     :     582.27       0.00         13          0          0
  rens             :       0.00       0.00          0          0          0
  reoptsols        :       0.00       0.00          0          0          0
  repair           :       0.00       0.00          0          0          0
  rins             :       0.00       0.00          0          0          0
  rootsoldiving    :       0.00       0.00          0          0          0
  rounding         :       0.33       0.00         13          0          0
  shiftandpropagate:       6.49       0.00          1          1          1
  shifting         :      63.33       0.00         13          0          0
  simplerounding   :       0.02       0.00         13          0          0
  subnlp           :       0.00       0.00          0          0          0
  trivial          :       1.56       0.00          2          0          0
  trivialnegation  :       0.00       0.00          0          0          0
  trustregion      :       0.00       0.00          0          0          0
  trysol           :       0.00       0.00          0          0          0
  twoopt           :       0.00       0.00          0          0          0
  undercover       :       0.00       0.00          0          0          0
  vbounds          :       4.07       0.00          1          0          0
  veclendiving     :       0.00       0.00          0          0          0
  zeroobj          :       0.00       0.00          0          0          0
  zirounding       :       0.00       0.00          1          0          0
  other solutions  :          -          -          -          0          -
LP                 :       Time      Calls Iterations  Iter/call   Iter/sec  Time-0-It Calls-0-It    ItLimit
  primal LP        :       0.00          0          0       0.00          -       0.00          0
  dual LP          :    3601.99         13     401106   30854.31     111.36       0.00          0
  lex dual LP      :       0.00          0          0       0.00          -
  barrier LP       :       0.00          0          0       0.00          -       0.00          0
  resolve instable :       0.00          0          0       0.00          -
  diving/probing LP:    1279.42          8      76811    9601.38      60.04
  strong branching :       0.00          0          0       0.00          -          -          -          0
    (at root node) :          -          0          0       0.00          -
  conflict analysis:       0.00          0          0       0.00          -
B&B Tree           :
  number of runs   :          1
  nodes            :          1 (1 internal, 0 leaves)
  feasible leaves  :          0
  infeas. leaves   :          0
  objective leaves :          0
  nodes (total)    :          1 (1 internal, 0 leaves)
  nodes left       :          2
  max depth        :          0
  max depth (total):          0
  backtracks       :          0 (0.0%)
  early backtracks :          0 (0.0%)
  nodes exc. ref.  :          0 (0.0%)
  delayed cutoffs  :          0
  repropagations   :          0 (0 domain reductions, 0 cutoffs)
  avg switch length:       1.00
  switching time   :       0.00
Root Node          :
  First LP value   : +1.50343786278185e+05
  First LP Iters   :     104511 (600.18 Iter/sec)
  First LP Time    :     174.13
  Final Dual Bound : +1.50420845591499e+05
  Final Root Iters :     436674
  Root LP Estimate :                     -
Solution           :
  Solutions found  :          2 (2 improvements)
  First Solution   : +1.59145360000000e+07   (in run 1, after 1 nodes, 393.87 seconds, depth 65003, found by <shiftandpropagate>)
  Gap First Sol.   :   infinite
  Gap Last Sol.    :   infinite
  Primal Bound     : +1.24259450000000e+07   (in run 1, after 1 nodes, 395.32 seconds, depth 0, found by <oneopt>)
  Dual Bound       : +1.50420845591499e+05
  Gap              :    8160.79 %
Integrals          :      Total       Avg%
  primal-dual      :  712022.81      98.89
  primal-ref       :          -          - (not evaluated)
  dual-ref         :          -          - (not evaluated)
written solution information to file <results/final_miplib_symretope_if_extended_generating_set_cpx_v802__settings_final_nosym_norestarts__3__tpl-tub-ss16.mps.gz.sol>
@04 1686670842
